db/data/2613114624462158914087145202564325526.z3.out
-------------------
2500.082177783
